unknown
(model
; cardinality of BoundSet is 8
(declare-sort BoundSet 0)
; rep: @uc_BoundSet_0
; rep: @uc_BoundSet_1
; rep: @uc_BoundSet_2
; rep: @uc_BoundSet_3
; rep: @uc_BoundSet_4
; rep: @uc_BoundSet_5
; rep: @uc_BoundSet_6
; rep: @uc_BoundSet_7
; cardinality of UnboundSet is 1
(declare-sort UnboundSet 0)
(declare-fun groundTerm_9 () UnboundSet)
(define-fun IsWearingCap ((BOUND_VARIABLE_652 BoundSet)) Bool true)
(define-fun IsNotWearingShirt ((BOUND_VARIABLE_652 BoundSet)) Bool true)
(define-fun IsLayingOn ((BOUND_VARIABLE_659 BoundSet) (BOUND_VARIABLE_660 BoundSet)) Bool true)
(define-fun Relaxes ((BOUND_VARIABLE_652 BoundSet)) Bool true)
(define-fun IsOn ((BOUND_VARIABLE_659 BoundSet) (BOUND_VARIABLE_660 BoundSet)) Bool false)
)
unsat
(error "Cannot get model unless immediately preceded by SAT/NOT_ENTAILED or UNKNOWN response.")
